h 3 -11 0
h 13 -28 0
h 35 39 36 0
h -21 35 0
h 22 25 0
h 24 -3 0
h 2 -1 0
h -37 -25 11 0
h 6 1 0
h -5 -11 0
h 22 28 -19 0
h 1 29 0
h 31 -38 0
h -16 -39 0
h 24 -27 0
h -22 27 0
h -17 16 0
h -7 27 0
h 3 5 0
h -16 -35 0
h 6 -32 0
h -2 -11 0
h 13 1 0
h -36 -38 0
h 17 -21 0
h -9 37 0
h -15 -9 0
h -5 -39 0
h -20 -13 0
h 20 -35 16 0
h 23 16 0
h 25 32 0
h -26 9 0
h 29 7 0
h -20 -11 0
h -3 -27 0
h 38 -29 0
h 38 5 0
h -2 -39 0
h -23 -6 0
h 19 15 0
h 26 -24 0
h -13 21 0
h -36 -9 0
h -31 20 0
